c description: Random 3-CNF over 22 variables and 94 clauses
c generator: CNFgen (0.9.2)
c copyright: (C) 2012-2022 Massimo Lauria <massimo.lauria@uniroma1.it>
c url: https://massimolauria.net/cnfgen
c command line: cnfgen --output CNF_4.28/22_bit_94_240.cnf randkcnf 3 22 94
c
p cnf 22 94
15 16 21 0
2 6 22 0
-4 11 -16 0
-3 -4 22 0
-5 13 15 0
6 9 12 0
-1 -2 -19 0
2 -3 -9 0
2 12 -13 0
1 3 17 0
-4 -11 -22 0
-5 9 10 0
-6 -9 22 0
2 -7 -14 0
9 16 20 0
-2 -9 22 0
-2 6 20 0
8 9 -13 0
3 -8 -15 0
-13 -16 -20 0
-3 -13 -18 0
-2 3 -20 0
-5 -8 22 0
7 -8 -10 0
-1 6 14 0
-4 -12 -22 0
1 -5 19 0
2 -4 -16 0
5 -18 -22 0
-4 5 -20 0
16 -17 -18 0
6 16 -22 0
4 -9 -16 0
-4 -10 -16 0
9 -17 -19 0
-11 -12 -15 0
5 15 16 0
-4 10 -14 0
-5 18 -19 0
1 -5 6 0
6 17 18 0
-6 10 11 0
-3 -11 18 0
-2 11 -21 0
4 5 -22 0
2 -5 19 0
2 -4 14 0
3 8 22 0
-9 18 -19 0
-10 -14 -17 0
13 16 -19 0
-13 14 18 0
7 -8 -22 0
5 -12 14 0
-4 -13 17 0
-6 7 -18 0
-5 9 -13 0
-1 -4 -22 0
7 -9 16 0
1 -5 15 0
7 15 -22 0
6 -12 -22 0
2 3 -21 0
-13 -14 -20 0
-6 10 12 0
8 -11 20 0
-1 -5 20 0
11 16 -18 0
-5 -10 11 0
2 7 -9 0
-2 -6 7 0
-12 20 -21 0
-8 -16 21 0
7 18 -19 0
6 7 -12 0
12 -14 18 0
-1 18 -22 0
3 -7 -9 0
4 17 -19 0
-17 -20 -21 0
-1 9 12 0
4 18 20 0
-6 -11 -20 0
-3 -12 -19 0
2 -6 -11 0
5 8 -15 0
-3 13 21 0
9 -13 18 0
6 14 22 0
2 5 -12 0
13 17 21 0
1 -13 -18 0
5 7 19 0
-1 -11 13 0
